
Gurobi 13.0.0 (mac64[arm]) logging started Sun Dec  7 08:30:57 2025

Set parameter LogFile to value "/Users/jjung404/PyProjects/qiga/data/steiner-opt/ES20FST/es20fst13_log.txt"
Set parameter OutputFlag to value 1
Gurobi Optimizer version 13.0.0 build v13.0.0rc1 (mac64[arm] - Darwin 24.6.0 24G325)

CPU model: Apple M3
Thread count: 8 physical cores, 8 logical processors, using up to 8 threads

Optimize a model with 135 rows, 120 columns and 354 nonzeros (Min)
Model fingerprint: 0xe781fe61
Model has 40 linear objective coefficients
Variable types: 80 continuous, 40 integer (40 binary)
Coefficient statistics:
  Matrix range     [1e+00, 2e+01]
  Objective range  [7e+04, 3e+06]
  Bounds range     [1e+00, 1e+00]
  RHS range        [1e+00, 2e+01]
Found heuristic solution: objective 4.624079e+07
Presolve removed 75 rows and 60 columns
Presolve time: 0.00s
Presolved: 60 rows, 60 columns, 182 nonzeros
Variable types: 40 continuous, 20 integer (20 binary)

Root relaxation: objective 2.766786e+07, 37 iterations, 0.00 seconds (0.00 work units)

    Nodes    |    Current Node    |     Objective Bounds      |     Work
 Expl Unexpl |  Obj  Depth IntInf | Incumbent    BestBd   Gap | It/Node Time

     0     0 2.7668e+07    0   12 4.6241e+07 2.7668e+07  40.2%     -    0s
H    0     0                    4.000673e+07 2.7668e+07  30.8%     -    0s
H    0     0                    3.793581e+07 2.7668e+07  27.1%     -    0s
H    0     0                    3.544956e+07 2.7668e+07  22.0%     -    0s
H    0     0                    3.452218e+07 2.7668e+07  19.9%     -    0s
     0     0 3.0293e+07    0   15 3.4522e+07 3.0293e+07  12.3%     -    0s
     0     0 3.2163e+07    0   14 3.4522e+07 3.2163e+07  6.83%     -    0s
     0     0 3.2545e+07    0   13 3.4522e+07 3.2545e+07  5.73%     -    0s
     0     0 3.3656e+07    0    9 3.4522e+07 3.3656e+07  2.51%     -    0s
     0     0 3.3816e+07    0   11 3.4522e+07 3.3816e+07  2.05%     -    0s
     0     0 3.3837e+07    0   14 3.4522e+07 3.3837e+07  1.98%     -    0s
     0     0 3.3844e+07    0   13 3.4522e+07 3.3844e+07  1.96%     -    0s
     0     0 3.3856e+07    0   14 3.4522e+07 3.3856e+07  1.93%     -    0s
     0     0 3.4124e+07    0   12 3.4522e+07 3.4124e+07  1.15%     -    0s
     0     0 3.4184e+07    0   10 3.4522e+07 3.4184e+07  0.98%     -    0s
     0     0 3.4251e+07    0   11 3.4522e+07 3.4251e+07  0.79%     -    0s
     0     0 3.4251e+07    0   11 3.4522e+07 3.4251e+07  0.79%     -    0s
     0     0 3.4251e+07    0   11 3.4522e+07 3.4251e+07  0.79%     -    0s
H    0     0                    3.443867e+07 3.4251e+07  0.54%     -    0s
     0     0     cutoff    0      3.4439e+07 3.4439e+07  0.00%     -    0s

Cutting planes:
  Gomory: 3
  Cover: 5
  Implied bound: 2
  MIR: 7
  Flow cover: 10
  Flow path: 1
  Network: 2
  RLT: 2
  Relax-and-lift: 1

Explored 1 nodes (182 simplex iterations) in 0.02 seconds (0.01 work units)
Thread count was 8 (of 8 available processors)

Solution count 6: 3.44387e+07 3.45222e+07 3.54496e+07 ... 4.62408e+07

Optimal solution found (tolerance 1.00e-04)
Best objective 3.443867300000e+07, best bound 3.443867300000e+07, gap 0.0000%
